20
1	82	27	49	2
8	75	10	20	13
9	33	52	84	20
10	82	110	94	43
10	67	89	47	69
9	19	92	95	31
2	18	23	68	8
2	8	109	46	54
7	47	56	28	45
1	13	31	50	59
5	48	107	10	79
2	58	95	33	13
2	45	24	49	56
5	53	9	1	54
1	79	47	82	18
4	63	102	85	40
10	19	69	95	52
7	82	37	90	99
6	32	42	77	40
5	39	18	50	79
